N = 11;
H = 6;
T = 2;

avail = array3d(1..N, 1..H, 1..T, [5, 10, 8, 1, 6, 1, 7, 4, 0, 3, 1, 8, 6, 4, 8, 0, 8, 9, 8, 10, 4, 0, 2, 1, 3, 6, 7, 0, 1, 3, 4, 0, 0, 1, 0, 9, 9, 5, 3, 10, 1, 9, 8, 3, 2, 8, 10, 7, 0, 7, 9, 9, 0, 10, 2, 0, 1, 4, 4, 9, 7, 0, 9, 9, 0, 6, 7, 8, 3, 9, 4, 3, 0, 3, 0, 0, 9, 4, 4, 4, 5, 5, 5, 7, 0, 3, 6, 10, 4, 7, 0, 6, 2, 9, 6, 6, 10, 4, 6, 0, 2, 10, 3, 3, 7, 0, 6, 10, 6, 3, 5, 5, 2, 7, 2, 4, 2, 10, 8, 8, 1, 9, 5, 0, 3, 7, 10, 2, 8, 0, 10, 3]);

r = array2d(1..H, 1..T, [2, 3, 1, 3, 0, 1, 2, 2, 3, 3, 5, 4]);
